c Random 3-CNF over 4 variables and 12 clauses
c Generated with `cnfgen`
c (C) 2012-2019 Massimo Lauria <massimo.lauria@uniroma1.it>
c https://massimolauria.net/cnfgen
c
c COMMAND LINE: cnfgen -v -o rand3_2.cnf randkcnf 3 4 12
c
p cnf 4 12
1 -2 -3 0
-2 -3 4 0
1 3 -4 0
-1 3 4 0
-1 2 4 0
-1 -2 4 0
-2 3 -4 0
-1 -2 -3 0
2 -3 4 0
-1 -3 -4 0
1 -3 4 0
-1 3 -4 0
